
Gurobi 9.5.2 (mac64[arm]) logging started Tue Jan  3 18:08:01 2023

Set parameter LogFile to value "./ccga_results/2023-01-03 18-08-00-135/FMP_TimeStampConvert_gurobi_log.txt"

Gurobi 9.5.2 (mac64[arm]) logging started Tue Jan  3 18:08:01 2023

Set parameter LogFile to value "./ccga_results/2023-01-03 18-08-00-135/FMP_TimeStampConvert_gurobi_log.txt"
Set parameter TimeLimit to value 180
Gurobi Optimizer version 9.5.2 build v9.5.2rc0 (mac64[arm])
Thread count: 8 physical cores, 8 logical processors, using up to 8 threads
Optimize a model with 3268 rows, 1323 columns and 11556 nonzeros
Model fingerprint: 0xed145cab
Variable types: 1275 continuous, 48 integer (48 binary)
Coefficient statistics:
  Matrix range     [3e-02, 1e+08]
  Objective range  [1e+00, 1e+00]
  Bounds range     [0e+00, 0e+00]
  RHS range        [1e+00, 1e+08]
Presolve removed 975 rows and 322 columns
Presolve time: 0.01s
Presolved: 2293 rows, 1001 columns, 8062 nonzeros
Variable types: 977 continuous, 24 integer (24 binary)
Found heuristic solution: objective -0.0000000

Root relaxation: objective 3.000000e+02, 2003 iterations, 0.03 seconds (0.08 work units)

    Nodes    |    Current Node    |     Objective Bounds      |     Work
 Expl Unexpl |  Obj  Depth IntInf | Incumbent    BestBd   Gap | It/Node Time

     0     0  300.00000    0    6   -0.00000  300.00000      -     -    0s
H    0     0                      10.8411407  300.00000  2667%     -    0s
     0     0  300.00000    0    6   10.84114  300.00000  2667%     -    0s
H    0     0                      13.7093535  300.00000  2088%     -    0s
H    0     0                      16.0852776  300.00000  1765%     -    0s
     0     0  300.00000    0    6   16.08528  300.00000  1765%     -    0s
     0     0  300.00000    0    7   16.08528  300.00000  1765%     -    0s
H    0     0                      24.2679978  141.66887   484%     -    0s
     0     0  141.66887    0   11   24.26800  141.66887   484%     -    0s
     0     0  137.50124    0   11   24.26800  137.50124   467%     -    0s
     0     0  137.50124    0   11   24.26800  137.50124   467%     -    0s
     0     0  137.50124    0   11   24.26800  137.50124   467%     -    0s
H    0     0                      29.6972777  137.50124   363%     -    0s
     0     2  137.50124    0   11   29.69728  137.50124   363%     -    0s
  3420  1293   30.69744   20   12   29.69728   47.32636  59.4%  34.0    5s
H 5117   785                      29.6972781   35.52632  19.6%  34.9    7s
* 5882   524              33      31.4707519   35.03441  11.3%  34.6    8s

Cutting planes:
  Gomory: 2
  Lift-and-project: 10
  MIR: 7
  Flow cover: 20
  RLT: 92

Explored 6419 nodes (213486 simplex iterations) in 9.01 seconds (16.23 work units)
Thread count was 8 (of 8 available processors)

Solution count 8: 31.4708 29.6973 29.6973 ... -0

Optimal solution found (tolerance 1.00e-03)
Best objective 3.147075194025e+01, best bound 3.147075194025e+01, gap 0.0000%

User-callback calls 16774, time in user-callback 0.01 sec
